EVRP-TW-SPD dataset generation/evrptwspd_instances/small_instances/Cplex5er/rc208C5.txt
StringID	Type	x	y	Delivery	Pickup	ReadyTime	DueDate	ServiceTime
D0	d	40.0	50.0	0.0	0.0	0.0	960.0	0.0
S0	f	40.0	50.0	0.0	0.0	0.0	960.0	0.0
S3	f	57.0	82.0	0.0	0.0	0.0	960.0	0.0
S19	f	77.0	30.0	0.0	0.0	0.0	960.0	0.0
C66	c	41.0	37.0	14.439024390243903	1.5609756097560972	383.0	905.0	10.0
C37	c	65.0	82.0	7.926829268292684	2.0731707317073162	59.0	632.0	10.0
C96	c	55.0	54.0	25.527272727272727	0.47272727272727266	142.0	532.0	10.0
C41	c	58.0	75.0	15.466666666666667	4.533333333333333	73.0	561.0	10.0
C32	c	87.0	30.0	3.4482758620689657	6.551724137931034	69.0	539.0	10.0

Q Vehicle fuel tank capacity /77.75/
C Vehicle load capacity /1000.0/
r fuel consumption rate /1.0/
g inverse refueling rate /0.39/
v average Velocity /1.0/
